c User generated cnf file
p cnf 13 75
7 -11 3 0 
-6 8 7 0 
9 2 -8 0 
8 3 -11 0 
7 13 -1 0 
7 4 -12 0 
12 -1 10 0 
3 -5 6 0 
5 -3 4 0 
12 13 -8 0 
1 -7 11 0 
-9 12 9 0 
8 13 -7 0 
-4 4 8 0 
12 7 -6 0 
6 1 -8 0 
11 7 -13 0 
3 -8 4 0 
8 -11 8 0 
-12 2 8 0 
1 6 -3 0 
4 -1 7 0 
3 -13 11 0 
-1 3 10 0 
-8 5 11 0 
6 9 -12 0 
13 -4 12 0 
-3 2 4 0 
-13 10 9 0 
9 -11 3 0 
10 4 -1 0 
10 4 -11 0 
-5 7 5 0 
3 13 -6 0 
-4 11 13 0 
13 -12 13 0 
11 -8 5 0 
-11 3 13 0 
-1 5 5 0 
1 11 -10 0 
10 3 -3 0 
13 -5 5 0 
9 -5 5 0 
-10 1 7 0 
-10 2 12 0 
-7 7 2 0 
11 5 -6 0 
6 -1 10 0 
6 1 -1 0 
8 -10 10 0 
9 -7 7 0 
9 -9 12 0 
-9 1 2 0 
1 13 -7 0 
9 5 -4 0 
-9 12 9 0 
-13 9 1 0 
9 -4 5 0 
10 -2 1 0 
8 -12 5 0 
-1 12 8 0 
4 -10 4 0 
4 -5 11 0 
1 -6 1 0 
6 7 -4 0 
5 -7 3 0 
3 9 -1 0 
1 12 -6 0 
4 -12 11 0 
12 -3 11 0 
-8 12 2 0 
1 9 -3 0 
7 -1 9 0 
11 -7 10 0 
10 9 -5 0 
